mode: 3, sl: 0, sr: 0, revisit: 1, loop: 1
Jetsuite speed factor: 8.88
Solving mode: 3-indexed base
Solving mode: 3-indexed base
Instance name: /home/orlab/rv-fstsp2/rv-fstsp-jetsuite/Niels_instances/output_with_jetsuite//uniform-alpha_3-54-n10-maxradius-60.txt
---------------------------------------------------------------
Current config:
- Number of threads = -1
- Drone endurance = 9999
- SL = 0
- SR = 0
- Allow loop = 1
- Allow revisit = 1
- Allow multi-visit drone = 0
- Use TSP optimal solution as warmstart: = 0
- Use cutting plane method: = 0
- Use CPLEX conflict refiner: = 0
- Debug info: = 0
- Jetsuit enabled: = 0
---------------------------------------------------------------
Version identifier: 22.1.1.0 | 2022-11-28 | 9160aff4d
Tried aggregator 2 times.
MIP Presolve eliminated 1114 rows and 2171 columns.
MIP Presolve modified 1472 coefficients.
Aggregator did 9 substitutions.
Reduced MIP has 1249 rows, 3780 columns, and 30892 nonzeros.
Reduced MIP has 3760 binaries, 0 generals, 0 SOSs, and 0 indicators.
Presolve time = 0.02 sec. (45.36 ticks)
Found incumbent of value 90909.759738 after 0.03 sec. (68.69 ticks)
Probing fixed 54 vars, tightened 18 bounds.
Probing changed sense of 5 constraints.
Probing time = 0.08 sec. (187.40 ticks)
Cover probing fixed 0 vars, tightened 38 bounds.
Tried aggregator 2 times.
Detecting symmetries...
MIP Presolve eliminated 53 rows and 121 columns.
MIP Presolve modified 2689 coefficients.
Aggregator did 12 substitutions.
Reduced MIP has 1181 rows, 3647 columns, and 30190 nonzeros.
Reduced MIP has 3634 binaries, 0 generals, 0 SOSs, and 0 indicators.
Presolve time = 0.02 sec. (50.39 ticks)
Probing time = 0.01 sec. (7.80 ticks)
Cover probing fixed 0 vars, tightened 3 bounds.
Clique table members: 14636.
MIP emphasis: balance optimality and feasibility.
MIP search method: dynamic search.
Parallel mode: deterministic, using up to 20 threads.
Root relaxation solution time = 0.08 sec. (188.43 ticks)

        Nodes                                         Cuts/
   Node  Left     Objective  IInf  Best Integer    Best Bound    ItCnt     Gap

*     0+    0                        90909.7597       10.8309            99.99%
      0     0       22.3412   124    90909.7597       22.3412       27   99.98%
*     0+    0                          150.3567       22.3412            85.14%
      0     0       50.0153   133      150.3567      Cuts: 23     3158   66.74%
      0     0       50.1574   135      150.3567      Cuts: 28     3963   66.64%
      0     0       50.1574   140      150.3567      Cuts: 32     4568   66.64%
      0     0       50.1574   130      150.3567      Cuts: 22     5018   66.64%
      0     0       50.1574   132      150.3567      Cuts: 32     5486   66.64%
Detecting symmetries...
Detecting symmetries...
      0     2       50.1574    85      150.3567       50.1574     5486   66.64%
Elapsed time = 1.36 sec. (1868.66 ticks, tree = 0.02 MB, solutions = 2)
      6     5       50.9888   118      150.3567       50.1574     8783   66.64%
    120    19       54.4691    84      150.3567       50.1575    23969   66.64%
    962   249      107.5379    96      150.3567       50.2272    85328   66.59%
   2289   639      128.7271    96      150.3567       53.2629   150224   64.58%
*  2880+  628                          146.6341       53.2629            63.68%
   2991   631      141.8492    70      146.6341       53.2629   192547   63.68%
   4045   789    infeasible            146.6341       53.2629   252079   63.68%
   4536   887        cutoff            146.6341       53.2629   285345   63.68%
   5744   787      121.6518    75      146.6341       53.2629   319372   63.68%
   6607  1028        cutoff            146.6341       53.2629   388657   63.68%
*  8450+ 1695                          143.5103       59.6955            58.40%
   8842  1606    infeasible            143.5103       59.6955   597397   58.40%
Elapsed time = 4.58 sec. (4991.14 ticks, tree = 4.05 MB, solutions = 4)

Performing restart 1

Repeating presolve.
Tried aggregator 2 times.
MIP Presolve eliminated 97 rows and 255 columns.
MIP Presolve modified 12247 coefficients.
Aggregator did 5 substitutions.
Reduced MIP has 1078 rows, 3387 columns, and 22485 nonzeros.
Reduced MIP has 3376 binaries, 0 generals, 0 SOSs, and 0 indicators.
Presolve time = 0.02 sec. (38.00 ticks)
Tried aggregator 2 times.
MIP Presolve eliminated 20 rows and 123 columns.
MIP Presolve modified 325 coefficients.
Aggregator did 1 substitutions.
Reduced MIP has 1057 rows, 3263 columns, and 21497 nonzeros.
Reduced MIP has 3252 binaries, 0 generals, 0 SOSs, and 0 indicators.
Presolve time = 0.01 sec. (20.60 ticks)
Tried aggregator 2 times.
MIP Presolve eliminated 55 rows and 350 columns.
MIP Presolve modified 428 coefficients.
Aggregator did 3 substitutions.
Reduced MIP has 999 rows, 2910 columns, and 19485 nonzeros.
Reduced MIP has 2899 binaries, 0 generals, 0 SOSs, and 0 indicators.
Presolve time = 0.01 sec. (20.98 ticks)
Tried aggregator 2 times.
MIP Presolve eliminated 51 rows and 207 columns.
MIP Presolve modified 707 coefficients.
Aggregator did 2 substitutions.
Reduced MIP has 946 rows, 2701 columns, and 17728 nonzeros.
Reduced MIP has 2690 binaries, 0 generals, 0 SOSs, and 0 indicators.
Presolve time = 0.02 sec. (29.53 ticks)
Tried aggregator 1 time.
MIP Presolve eliminated 0 rows and 3 columns.
Reduced MIP has 946 rows, 2698 columns, and 17710 nonzeros.
Reduced MIP has 2687 binaries, 0 generals, 0 SOSs, and 0 indicators.
Presolve time = 0.01 sec. (10.49 ticks)
Represolve time = 0.32 sec. (596.47 ticks)
   8901     0       50.3514   195      143.5103      Cuts: 20   631563   58.40%
   8901     0       53.2629   127      143.5103      Cuts: 14   631753   58.40%
   8901     0       53.2629   158      143.5103      Cuts: 56   631954   58.40%
   8901     0       53.2629    97      143.5103    MIRcuts: 1   631956   58.40%
   8901     0       53.2629   102      143.5103     Cuts: 118   632113   58.40%
   8901     0       53.2629   144      143.5103      Cuts: 36   632302   58.40%
   8901     2       53.2629   103      143.5103       59.6955   632302   58.40%
   9129    45      128.4278    80      143.5103       59.6955   649184   58.40%
  10144    30      113.0654    96      143.5103       59.6955   744888   58.40%
  11051   430      142.6827    52      143.5103       75.7056   892795   47.25%
* 12576   779      integral     0      142.1209      104.7652  1015880   26.28%
  13131   952        cutoff            142.1209      111.9605  1093897   21.22%
* 13802   648      integral     0      141.0122      121.6775  1147416   13.71%

Clique cuts applied:  4
Cover cuts applied:  13
Implied bound cuts applied:  6
Flow cuts applied:  2
Mixed integer rounding cuts applied:  22
Zero-half cuts applied:  5
Lift and project cuts applied:  2
Gomory fractional cuts applied:  3

Root node processing (before b&c):
  Real time             =    1.26 sec. (1826.26 ticks)
Parallel b&c, 20 threads:
  Real time             =   12.45 sec. (10351.34 ticks)
  Sync time (average)   =    4.75 sec.
  Wait time (average)   =    0.01 sec.
                          ------------
Total (root+branch&cut) =   13.71 sec. (12177.60 ticks)
Solve time: 13.715
Objective Value: 141.012

Truck Schedule: 
Stage 1: Truck arrived node 0 at 0
	Truck departed from node 0 to node 6 at 0
Stage 2: Truck arrived node 6 at 24.9677
	Truck departed from node 6 to node 4 at 24.9677
Stage 3: Truck arrived node 4 at 54.0882
	Truck departed from node 4 to node 4 at 54.0882
Stage 4: Truck arrived node 4 at 54.0882
	Truck departed from node 4 to node 4 at 68.1985
Stage 5: Truck arrived node 4 at 68.1985
	Truck departed from node 4 to node 7 at 89.5734
Stage 6: Truck arrived node 7 at 130.181
	Truck departed from node 7 to node 10 at 130.181
Stage 7: Truck arrived node 10 at 141.012

Truck arc:
Stage 1: 0 -> 6
Stage 2: 6 -> 4
Stage 3: 4 -> 4
Stage 4: 4 -> 4
Stage 5: 4 -> 7
Stage 6: 7 -> 10

Drone Schedule: 
Stage 1 to 3: Drone departed from node 0 visited customer 2 and arrived to node 4
	 Departed at: 0
	 Visited at: 32.5767
	 Arrived at: 52.9346
Added drone operation: position 0 (node 0) -> customer 2 -> position 2 (node 4)
Stage 3 to 4: Drone departed from node 4 visited customer 3 and arrived to node 4
	 Departed at: 54.0882
	 Visited at: 59.9096
	 Arrived at: 65.731
Added drone operation: position 2 (node 4) -> customer 3 -> position 3 (node 4)
Stage 4 to 5: Drone departed from node 4 visited customer 5 and arrived to node 4
	 Departed at: 68.1985
	 Visited at: 78.886
	 Arrived at: 89.5734
Added drone operation: position 3 (node 4) -> customer 5 -> position 4 (node 4)
Stage 5 to 7: Drone departed from node 4 visited customer 1 and arrived to node 10
	 Departed at: 89.5734
	 Visited at: 110.93
	 Arrived at: 138.177
Added drone operation: position 4 (node 4) -> customer 1 -> position 6 (node 10)

Jetsuite Schedule: 
Stage 3: Jetsuite launched from node 4 served customer 9 and recovered at node 4
Stage 4: Jetsuite launched from node 4 served customer 8 and recovered at node 4
x[0][6][1] = 1
x[4][4][3] = 1
x[4][4][4] = 1
x[4][7][5] = 1
x[6][4][2] = 1
x[7][10][6] = 1

Drone Variables (V[i][h][k]):
Y[0][2][1] = 1
Y[4][1][5] = 1
Y[4][3][3] = 1
Y[4][5][4] = 1

Jetsuite Variables (U[i][h][k]):
U[4][8][4] = 1
U[4][9][3] = 1

Checking the feasibility of the solution...
Time schedule is not given, recalculating...
Current objective: 141.012
Recalculated objective: 138.545
